Welcome to the CBC MILP Solver 
Version: 2.10.12 
Build Date: Aug 20 2024 

command line - /opt/homebrew/bin/cbc computational_data/real_data/lp/wine_trial_012_margin.lp seconds 10.0 solve solu computational_data/real_data/solutions/wine_trial_012_margin.sol (default strategy 1)
 CoinLpIO::readLp(): Maximization problem reformulated as minimization
Coin0009I Switching back to maximization to get correct duals etc
seconds was changed from 1e+100 to 10
Continuous objective value is 35.9234 - 0.00 seconds
Cgl0003I 0 fixed, 0 tightened bounds, 101 strengthened rows, 0 substitutions
Cgl0003I 0 fixed, 0 tightened bounds, 94 strengthened rows, 0 substitutions
Cgl0003I 0 fixed, 0 tightened bounds, 84 strengthened rows, 0 substitutions
Cgl0003I 0 fixed, 0 tightened bounds, 81 strengthened rows, 0 substitutions
Cgl0003I 0 fixed, 0 tightened bounds, 66 strengthened rows, 0 substitutions
Cgl0003I 0 fixed, 0 tightened bounds, 48 strengthened rows, 0 substitutions
Cgl0003I 0 fixed, 0 tightened bounds, 23 strengthened rows, 0 substitutions
Cgl0003I 0 fixed, 0 tightened bounds, 18 strengthened rows, 0 substitutions
Cgl0003I 0 fixed, 0 tightened bounds, 11 strengthened rows, 0 substitutions
Cgl0004I processed model has 97 rows, 33 columns (33 integer (33 of which binary)) and 838 elements
Cbc0038I Initial state - 10 integers unsatisfied sum - 4.625
Cbc0038I Pass   1: suminf.    0.25000 (1) obj. 35.7567 iterations 11
Cbc0038I Pass   2: suminf.    0.25000 (1) obj. 35.7567 iterations 0
Cbc0038I Solution found of 35.0067
Cbc0038I Before mini branch and bound, 23 integers at bound fixed and 0 continuous
Cbc0038I Full problem 97 rows 33 columns, reduced to 7 rows 6 columns
Cbc0038I Mini branch and bound did not improve solution (0.01 seconds)
Cbc0038I Round again with cutoff of 35.0942
Cbc0038I Reduced cost fixing fixed 3 variables on major pass 2
Cbc0038I Pass   3: suminf.    0.25000 (1) obj. 35.7567 iterations 0
Cbc0038I Pass   4: suminf.    0.25000 (1) obj. 35.7567 iterations 0
Cbc0038I Pass   5: suminf.    0.08751 (1) obj. 35.0942 iterations 3
Cbc0038I Pass   6: suminf.    0.08751 (1) obj. 35.0942 iterations 16
Cbc0038I Pass   7: suminf.    0.08751 (1) obj. 35.0942 iterations 11
Cbc0038I Pass   8: suminf.    0.08751 (1) obj. 35.0942 iterations 6
Cbc0038I Pass   9: suminf.    0.08751 (1) obj. 35.0942 iterations 19
Cbc0038I Pass  10: suminf.    0.08751 (1) obj. 35.0942 iterations 9
Cbc0038I Pass  11: suminf.    0.25000 (1) obj. 35.7567 iterations 1
Cbc0038I Pass  12: suminf.    0.25000 (1) obj. 35.7567 iterations 10
Cbc0038I Pass  13: suminf.    0.25000 (1) obj. 35.7567 iterations 8
Cbc0038I Pass  14: suminf.    0.08751 (1) obj. 35.0942 iterations 1
Cbc0038I Pass  15: suminf.    0.08751 (1) obj. 35.0942 iterations 7
Cbc0038I Pass  16: suminf.    0.08751 (1) obj. 35.0942 iterations 6
Cbc0038I Pass  17: suminf.    0.08751 (1) obj. 35.0942 iterations 13
Cbc0038I Pass  18: suminf.    0.08751 (1) obj. 35.0942 iterations 11
Cbc0038I Pass  19: suminf.    0.25000 (1) obj. 35.7567 iterations 1
Cbc0038I Pass  20: suminf.    0.25000 (1) obj. 35.7567 iterations 19
Cbc0038I Pass  21: suminf.    0.25000 (1) obj. 35.7567 iterations 7
Cbc0038I Pass  22: suminf.    0.08751 (1) obj. 35.0942 iterations 1
Cbc0038I Pass  23: suminf.    0.08751 (1) obj. 35.0942 iterations 23
Cbc0038I Pass  24: suminf.    0.08751 (1) obj. 35.0942 iterations 10
Cbc0038I Pass  25: suminf.    0.25000 (1) obj. 35.7567 iterations 3
Cbc0038I Pass  26: suminf.    0.25000 (1) obj. 35.7567 iterations 18
Cbc0038I Pass  27: suminf.    0.25000 (1) obj. 35.7567 iterations 14
Cbc0038I Pass  28: suminf.    0.08751 (1) obj. 35.0942 iterations 2
Cbc0038I Pass  29: suminf.    0.08751 (1) obj. 35.0942 iterations 7
Cbc0038I Pass  30: suminf.    0.08751 (1) obj. 35.0942 iterations 2
Cbc0038I Pass  31: suminf.    0.25000 (1) obj. 35.7567 iterations 1
Cbc0038I Pass  32: suminf.    0.25000 (1) obj. 35.7567 iterations 2
Cbc0038I No solution found this major pass
Cbc0038I Before mini branch and bound, 12 integers at bound fixed and 0 continuous
Cbc0038I Full problem 97 rows 33 columns, reduced to 60 rows 21 columns
Cbc0038I Mini branch and bound did not improve solution (0.01 seconds)
Cbc0038I After 0.01 seconds - Feasibility pump exiting with objective of 35.0067 - took 0.01 seconds
Cbc0012I Integer solution of 35.006666 found by feasibility pump after 0 iterations and 0 nodes (0.01 seconds)
Cbc0038I Full problem 97 rows 33 columns, reduced to 7 rows 6 columns
Cbc0031I 3 added rows had average density of 14.666667
Cbc0013I At root node, 6 cuts changed objective from 35.88168 to 35.006666 in 1 passes
Cbc0014I Cut generator 0 (Probing) - 0 row cuts average 0.0 elements, 0 column cuts (0 active)  in 0.000 seconds - new frequency is -100
Cbc0014I Cut generator 1 (Gomory) - 3 row cuts average 14.7 elements, 0 column cuts (0 active)  in 0.000 seconds - new frequency is 1
Cbc0014I Cut generator 2 (Knapsack) - 0 row cuts average 0.0 elements, 0 column cuts (0 active)  in 0.000 seconds - new frequency is -100
Cbc0014I Cut generator 3 (Clique) - 0 row cuts average 0.0 elements, 0 column cuts (0 active)  in 0.000 seconds - new frequency is -100
Cbc0014I Cut generator 4 (MixedIntegerRounding2) - 0 row cuts average 0.0 elements, 0 column cuts (0 active)  in 0.000 seconds - new frequency is -100
Cbc0014I Cut generator 5 (FlowCover) - 0 row cuts average 0.0 elements, 0 column cuts (0 active)  in 0.000 seconds - new frequency is -100
Cbc0014I Cut generator 6 (TwoMirCuts) - 3 row cuts average 20.7 elements, 0 column cuts (0 active)  in 0.000 seconds - new frequency is -100
Cbc0001I Search completed - best objective 35.00666599999999, took 0 iterations and 0 nodes (0.01 seconds)
Cbc0035I Maximum depth 0, 3 variables fixed on reduced cost
Cuts at root node changed objective from 35.8817 to 35.0067
Probing was tried 1 times and created 0 cuts of which 0 were active after adding rounds of cuts (0.000 seconds)
Gomory was tried 1 times and created 3 cuts of which 0 were active after adding rounds of cuts (0.000 seconds)
Knapsack was tried 1 times and created 0 cuts of which 0 were active after adding rounds of cuts (0.000 seconds)
Clique was tried 1 times and created 0 cuts of which 0 were active after adding rounds of cuts (0.000 seconds)
MixedIntegerRounding2 was tried 1 times and created 0 cuts of which 0 were active after adding rounds of cuts (0.000 seconds)
FlowCover was tried 1 times and created 0 cuts of which 0 were active after adding rounds of cuts (0.000 seconds)
TwoMirCuts was tried 1 times and created 3 cuts of which 0 were active after adding rounds of cuts (0.000 seconds)
ZeroHalf was tried 1 times and created 0 cuts of which 0 were active after adding rounds of cuts (0.000 seconds)

Result - Optimal solution found

Objective value:                35.00666600
Enumerated nodes:               0
Total iterations:               0
Time (CPU seconds):             0.02
Time (Wallclock seconds):       0.02

Total time (CPU seconds):       0.02   (Wallclock seconds):       0.02

